NAME : RANDOM
DIMENSION : 10
EDGE_WEIGHT_TYPE : EUC_2D
NODE_COORD_SECTION
1 56.5041 -393.737
2 -170.438 183.653
3 161.92 -37.6356
4 -221.033 297.653
5 173.96 308.365
6 -130.914 137.143
7 84.4189 -346.675
8 214.593 261.493
9 -284.117 -398.092
10 -4.90092 -322.396
EOF
0

